Maximize
  0.2637399527116035 Z_284_0_0 + 0.205834915786393 Z_284_0_1
   + 0.0558152110365171 Z_284_0_2 + 0.0252414255480525 Z_284_0_3
   + 0.3493684949174339 Z_284_0_4 + 0.00363609688515373 Z_284_1_0
   + 0.00301905518531674 Z_284_1_1 + 0.5704140219110909 Z_284_1_2
   + 0.0163687869115866 Z_284_1_3 + 0.306562039106852 Z_284_1_4
Subject To
 constraint1_2840: Z_284_0_0 + Z_284_0_1 + Z_284_0_2 + Z_284_0_3
   + Z_284_0_4 <= 1
 constraint1_2841: Z_284_1_0 + Z_284_1_1 + Z_284_1_2 + Z_284_1_3
   + Z_284_1_4 <= 1
 constraint2_4870: <= 1
 constraint2_4871: <= 1
 constraint2_4872: <= 1
 constraint2_4873: <= 1
 constraint2_2840: Z_284_0_0 + Z_284_1_0 <= 1
 constraint2_2841: Z_284_0_1 + Z_284_1_1 <= 1
 constraint2_2842: Z_284_0_2 + Z_284_1_2 <= 1
 constraint2_2843: Z_284_0_3 + Z_284_1_3 <= 1
 constraint2_6330: <= 1
 constraint2_6331: <= 1
 constraint2_6332: <= 1
 constraint2_6333: <= 1
Bounds
Binaries
 Z_284_0_0 Z_284_0_1 Z_284_0_2 Z_284_0_3 Z_284_0_4 Z_284_1_0 Z_284_1_1
 Z_284_1_2 Z_284_1_3 Z_284_1_4
End
